p tw 73 194
0 1
0 2
0 45
0 63
1 2
1 27
1 39
1 40
1 41
1 42
2 44
2 58
2 59
3 4
3 5
3 29
3 36
4 5
4 28
4 37
5 6
5 7
6 7
6 15
7 8
7 9
7 10
7 11
8 9
8 10
8 11
8 34
9 10
9 11
9 13
9 35
9 54
9 55
9 56
9 57
10 11
10 14
10 15
11 16
11 30
12 13
12 62
12 65
12 67
12 68
13 35
13 54
13 55
13 56
13 57
14 15
14 30
14 38
16 17
16 18
16 19
16 20
16 30
17 18
17 19
17 20
17 38
17 50
18 19
18 20
18 69
18 70
19 20
19 39
19 48
19 59
19 63
19 64
19 66
20 47
21 22
21 33
21 57
21 60
21 61
21 62
22 31
22 55
22 68
23 24
23 25
23 51
24 25
24 52
25 53
25 70
26 27
26 49
27 39
27 40
27 41
27 42
28 29
28 37
29 36
30 38
31 32
31 33
31 55
31 68
32 33
32 56
32 65
33 57
33 60
33 61
33 62
34 35
35 54
35 55
35 56
35 57
36 37
38 50
39 40
39 41
39 42
39 48
39 59
39 63
39 64
39 66
40 41
40 42
40 58
41 42
41 43
41 44
41 45
41 46
42 49
43 44
43 45
43 46
43 64
44 45
44 46
44 58
44 59
45 46
45 63
46 66
47 48
48 59
48 63
48 64
48 66
50 69
51 52
51 53
52 53
53 70
54 55
54 56
54 57
54 67
55 56
55 57
55 68
56 57
56 65
57 60
57 61
57 62
58 59
59 63
59 64
59 66
60 61
60 62
60 72
61 62
61 71
62 65
62 67
62 68
63 64
63 66
64 66
65 67
65 68
67 68
69 70
71 72
